
# PYTHONPATH must include directory above plugin directory.
#     Define either externally or here, then import plugin.
sys.path.insert(0, '/edfs/users/daniel/deprince-group/other_codes')
import newpade

molecule {
0 2
H 
}

set {
  basis sto-3g
  reference rohf
}

set pade {
  print 1
  filename TIMEX5
  window 1
  damping 0.005
  min_quocient 1e5
  initial_freq 0.0
  final_freq 40.0
  delta_freq 0.005
}

energy('newpade')

newpade.exampleFN()
