# PYTHONPATH must include directory above plugin directory.
#     Define either externally or here, then import plugin.
sys.path.insert(0, './..')
import mymp2

molecule {
O
H 1 1.0
H 1 1.0 2 104.5
symmetry c1
}

set {
  basis sto-3g
}

energy('mymp2')
energy('conv-mp2')

mymp2.exampleFN()

